c This is an instance of the heur track of PACE 2020 Challenge, see https://pacechallenge.org/2020/ 
c TYPE: generated 
c ORIGIN: Python networkx package 
c DESCRIPTION: A cycle graph on p nodes with chords joining each vertex x to its inverse modulo p. This graph is a (mildly explicit) 3-regular expander. Generated using chordal_cycle_graph function from Python’s networkx package 
p tdp 211 313
1 2
1 3
2 155
3 4
4 5
4 6
5 7
5 8
6 153
6 120
7 9
7 10
8 154
8 188
9 11
9 12
10 93
10 85
11 13
11 14
12 200
12 72
13 15
13 16
14 82
14 64
15 17
15 18
16 68
16 132
17 19
17 20
18 60
18 182
19 21
19 22
20 87
20 46
21 23
21 24
22 206
22 169
23 25
23 26
24 42
24 148
25 27
25 28
26 140
26 142
27 29
27 30
28 111
28 34
29 31
29 32
30 194
30 32
31 33
31 34
32 195
33 35
33 36
34 112
35 37
35 38
36 192
36 138
37 39
37 40
38 108
38 164
39 41
39 42
40 134
40 150
41 43
41 44
42 146
43 45
43 46
44 168
44 207
45 47
45 48
46 90
47 49
47 50
48 196
48 198
49 51
49 52
50 83
50 86
51 53
51 54
52 125
52 126
53 55
53 56
54 186
54 181
55 57
55 58
56 122
56 140
57 59
57 60
58 148
58 134
59 61
59 62
60 164
61 63
61 64
62 130
62 70
63 65
64 210
65 66
66 67
66 68
67 69
67 70
68 211
69 71
69 72
70 84
71 73
71 74
72 102
73 75
73 76
74 80
74 196
75 77
75 78
76 90
76 92
77 79
77 80
78 144
78 104
79 81
79 82
80 172
81 83
81 84
82 100
83 85
84 201
85 96
86 87
86 88
87 89
88 185
88 186
89 126
89 128
90 91
91 96
91 98
92 93
92 94
93 95
94 171
94 174
95 114
95 116
96 97
97 209
97 206
98 99
98 100
99 101
99 102
100 203
101 103
101 104
102 173
103 105
103 106
104 146
105 107
105 108
106 150
106 139
107 109
107 110
108 158
109 111
109 112
110 136
110 194
111 113
112 114
113 174
113 176
114 115
115 142
115 144
116 117
116 118
117 119
117 120
118 201
118 155
119 121
119 122
120 156
121 123
121 124
122 137
123 125
123 126
124 180
124 187
125 127
127 184
127 208
128 129
128 130
129 131
129 132
130 207
131 133
131 134
132 165
133 135
133 136
135 137
135 138
136 162
137 139
138 159
139 152
140 141
141 163
141 166
142 143
143 193
143 192
144 145
145 189
145 202
146 147
147 157
147 160
148 149
149 176
149 178
150 151
151 167
151 170
152 153
152 154
153 155
154 181
156 157
156 158
157 159
158 179
159 172
160 161
160 162
161 163
161 164
162 169
163 165
165 180
166 167
166 168
167 169
168 177
170 171
170 172
171 173
173 203
174 175
175 188
175 190
176 177
177 195
178 179
178 180
179 181
182 183
182 184
183 185
183 186
184 205
185 187
187 209
188 189
189 199
190 191
190 192
191 193
191 194
193 195
196 197
197 202
197 204
198 199
198 200
199 201
200 208
202 203
204 205
204 206
205 207
208 209
210 211
